c "881691.clq"
p edge 198 2912
e 1 17
e 1 18
e 1 19
e 1 21
e 1 23
e 1 24
e 1 25
e 1 27
e 1 29
e 1 30
e 1 31
e 1 33
e 1 34
e 1 35
e 1 37
e 1 41
e 1 43
e 1 44
e 1 51
e 1 53
e 1 55
e 1 75
e 1 78
e 1 82
e 1 84
e 1 88
e 1 89
e 1 92
e 1 104
e 1 108
e 1 111
e 1 116
e 1 125
e 1 127
e 1 133
e 1 147
e 1 148
e 1 157
e 1 174
e 1 175
e 1 176
e 1 181
e 1 186
e 1 189
e 1 191
e 1 194
e 2 17
e 2 18
e 2 19
e 2 20
e 2 21
e 2 23
e 2 24
e 2 25
e 2 28
e 2 30
e 2 35
e 2 39
e 2 51
e 2 54
e 2 62
e 2 71
e 2 73
e 2 77
e 2 94
e 2 101
e 2 127
e 2 131
e 2 175
e 2 179
e 2 181
e 2 189
e 2 190
e 3 17
e 3 18
e 3 19
e 3 20
e 3 21
e 3 22
e 3 23
e 3 24
e 3 25
e 3 26
e 3 27
e 3 28
e 3 29
e 3 31
e 3 32
e 3 34
e 3 36
e 3 43
e 3 44
e 3 64
e 3 65
e 3 68
e 3 73
e 3 75
e 3 79
e 3 89
e 3 90
e 3 91
e 3 93
e 3 94
e 3 99
e 3 102
e 3 105
e 3 119
e 3 124
e 3 147
e 3 154
e 3 159
e 3 162
e 3 179
e 3 180
e 3 181
e 3 182
e 3 190
e 4 17
e 4 18
e 4 21
e 4 23
e 4 24
e 4 28
e 4 29
e 4 30
e 4 34
e 4 35
e 4 48
e 4 50
e 4 61
e 4 63
e 4 67
e 4 77
e 4 80
e 4 93
e 4 105
e 4 108
e 4 109
e 4 126
e 4 136
e 4 138
e 4 155
e 4 157
e 4 172
e 4 178
e 4 183
e 4 186
e 4 188
e 4 189
e 5 17
e 5 18
e 5 19
e 5 20
e 5 21
e 5 22
e 5 26
e 5 27
e 5 31
e 5 36
e 5 45
e 5 46
e 5 47
e 5 50
e 5 53
e 5 55
e 5 61
e 5 71
e 5 82
e 5 95
e 5 116
e 5 122
e 5 131
e 5 157
e 5 167
e 5 175
e 5 192
e 6 17
e 6 18
e 6 19
e 6 20
e 6 21
e 6 22
e 6 31
e 6 33
e 6 35
e 6 40
e 6 42
e 6 44
e 6 48
e 6 49
e 6 52
e 6 57
e 6 58
e 6 64
e 6 66
e 6 76
e 6 79
e 6 80
e 6 81
e 6 82
e 6 88
e 6 90
e 6 102
e 6 111
e 6 112
e 6 114
e 6 118
e 6 126
e 6 128
e 6 133
e 6 135
e 6 145
e 6 146
e 6 160
e 6 165
e 6 168
e 6 190
e 7 17
e 7 18
e 7 19
e 7 20
e 7 21
e 7 22
e 7 24
e 7 25
e 7 26
e 7 27
e 7 29
e 7 32
e 7 34
e 7 40
e 7 44
e 7 47
e 7 48
e 7 50
e 7 52
e 7 54
e 7 57
e 7 61
e 7 63
e 7 79
e 7 91
e 7 97
e 7 103
e 7 106
e 7 116
e 7 143
e 7 153
e 7 161
e 7 163
e 7 167
e 7 191
e 8 17
e 8 18
e 8 21
e 8 22
e 8 23
e 8 29
e 8 30
e 8 35
e 8 44
e 8 45
e 8 46
e 8 51
e 8 53
e 8 59
e 8 67
e 8 71
e 8 112
e 8 113
e 8 116
e 8 119
e 8 131
e 8 132
e 8 133
e 8 142
e 8 146
e 8 168
e 8 188
e 8 197
e 9 17
e 9 18
e 9 19
e 9 20
e 9 21
e 9 22
e 9 24
e 9 25
e 9 27
e 9 30
e 9 34
e 9 35
e 9 42
e 9 43
e 9 44
e 9 47
e 9 48
e 9 49
e 9 51
e 9 63
e 9 65
e 9 68
e 9 75
e 9 78
e 9 83
e 9 84
e 9 91
e 9 92
e 9 99
e 9 111
e 9 113
e 9 117
e 9 118
e 9 128
e 9 138
e 9 142
e 9 143
e 9 146
e 9 151
e 9 155
e 9 169
e 9 171
e 9 179
e 10 17
e 10 18
e 10 19
e 10 20
e 10 21
e 10 22
e 10 23
e 10 24
e 10 25
e 10 26
e 10 27
e 10 28
e 10 30
e 10 31
e 10 37
e 10 38
e 10 50
e 10 52
e 10 53
e 10 55
e 10 56
e 10 60
e 10 68
e 10 70
e 10 71
e 10 74
e 10 75
e 10 83
e 10 86
e 10 88
e 10 91
e 10 97
e 10 103
e 10 105
e 10 115
e 10 124
e 10 126
e 10 128
e 10 130
e 10 139
e 10 143
e 10 144
e 10 146
e 10 147
e 10 150
e 10 169
e 10 171
e 10 179
e 10 183
e 10 185
e 11 17
e 11 18
e 11 19
e 11 20
e 11 22
e 11 28
e 11 32
e 11 40
e 11 42
e 11 96
e 11 114
e 11 118
e 11 120
e 11 132
e 11 195
e 12 17
e 12 18
e 12 19
e 12 20
e 12 22
e 12 23
e 12 24
e 12 26
e 12 29
e 12 35
e 12 36
e 12 41
e 12 42
e 12 43
e 12 45
e 12 47
e 12 48
e 12 50
e 12 52
e 12 53
e 12 55
e 12 59
e 12 66
e 12 69
e 12 73
e 12 74
e 12 76
e 12 84
e 12 89
e 12 90
e 12 95
e 12 98
e 12 103
e 12 112
e 12 114
e 12 124
e 12 127
e 12 134
e 12 148
e 12 157
e 12 158
e 12 163
e 12 173
e 12 175
e 12 183
e 12 188
e 13 17
e 13 18
e 13 19
e 13 20
e 13 26
e 13 27
e 13 30
e 13 33
e 13 34
e 13 37
e 13 46
e 13 59
e 13 61
e 13 71
e 13 81
e 13 85
e 13 91
e 13 93
e 13 102
e 13 111
e 13 121
e 13 131
e 13 151
e 13 153
e 13 155
e 13 159
e 13 163
e 13 164
e 14 17
e 14 18
e 14 19
e 14 20
e 14 21
e 14 22
e 14 23
e 14 25
e 14 27
e 14 28
e 14 38
e 14 42
e 14 43
e 14 51
e 14 56
e 14 61
e 14 77
e 14 81
e 14 82
e 14 83
e 14 85
e 14 86
e 14 88
e 14 94
e 14 103
e 14 106
e 14 118
e 14 122
e 14 125
e 14 139
e 14 142
e 14 165
e 14 178
e 15 17
e 15 18
e 15 19
e 15 20
e 15 23
e 15 24
e 15 29
e 15 30
e 15 32
e 15 34
e 15 39
e 15 49
e 15 64
e 15 66
e 15 75
e 15 86
e 15 105
e 15 113
e 15 126
e 15 137
e 15 161
e 15 168
e 15 188
e 15 192
e 16 17
e 16 19
e 16 20
e 16 21
e 16 22
e 16 23
e 16 24
e 16 25
e 16 26
e 16 28
e 16 29
e 16 31
e 16 32
e 16 33
e 16 35
e 16 38
e 16 39
e 16 41
e 16 42
e 16 45
e 16 50
e 16 56
e 16 57
e 16 60
e 16 71
e 16 72
e 16 76
e 16 79
e 16 82
e 16 89
e 16 100
e 16 103
e 16 109
e 16 112
e 16 122
e 16 124
e 16 126
e 16 128
e 16 145
e 16 146
e 16 148
e 16 152
e 16 159
e 16 161
e 16 166
e 16 167
e 16 170
e 16 171
e 16 193
e 17 18
e 17 19
e 17 20
e 17 21
e 17 22
e 17 23
e 17 24
e 17 25
e 17 26
e 17 27
e 17 28
e 17 29
e 17 30
e 17 31
e 17 33
e 17 34
e 17 36
e 17 37
e 17 40
e 17 41
e 17 43
e 17 44
e 17 45
e 17 46
e 17 48
e 17 51
e 17 53
e 17 55
e 17 56
e 17 58
e 17 59
e 17 62
e 17 63
e 17 64
e 17 68
e 17 69
e 17 71
e 17 73
e 17 74
e 17 78
e 17 83
e 17 84
e 17 85
e 17 86
e 17 88
e 17 91
e 17 92
e 17 93
e 17 95
e 17 101
e 17 103
e 17 104
e 17 109
e 17 112
e 17 115
e 17 118
e 17 119
e 17 121
e 17 123
e 17 127
e 17 137
e 17 144
e 17 150
e 17 168
e 17 173
e 17 184
e 17 185
e 17 187
e 17 195
e 18 19
e 18 20
e 18 21
e 18 22
e 18 23
e 18 24
e 18 25
e 18 26
e 18 27
e 18 28
e 18 29
e 18 30
e 18 33
e 18 36
e 18 38
e 18 40
e 18 42
e 18 44
e 18 45
e 18 46
e 18 47
e 18 48
e 18 50
e 18 53
e 18 59
e 18 60
e 18 62
e 18 63
e 18 64
e 18 66
e 18 68
e 18 69
e 18 76
e 18 81
e 18 82
e 18 83
e 18 85
e 18 87
e 18 93
e 18 98
e 18 99
e 18 103
e 18 116
e 18 118
e 18 119
e 18 120
e 18 121
e 18 125
e 18 129
e 18 146
e 18 147
e 18 169
e 18 172
e 18 177
e 19 20
e 19 21
e 19 22
e 19 23
e 19 24
e 19 25
e 19 26
e 19 27
e 19 28
e 19 29
e 19 30
e 19 32
e 19 33
e 19 34
e 19 35
e 19 37
e 19 38
e 19 40
e 19 42
e 19 44
e 19 45
e 19 46
e 19 49
e 19 50
e 19 51
e 19 54
e 19 55
e 19 58
e 19 59
e 19 60
e 19 66
e 19 68
e 19 72
e 19 73
e 19 74
e 19 75
e 19 76
e 19 77
e 19 81
e 19 84
e 19 91
e 19 92
e 19 94
e 19 95
e 19 96
e 19 98
e 19 112
e 19 120
e 19 122
e 19 126
e 19 128
e 19 129
e 19 131
e 19 136
e 19 138
e 19 139
e 19 159
e 19 160
e 19 161
e 19 164
e 19 170
e 19 171
e 19 178
e 19 191
e 19 192
e 19 194
e 20 21
e 20 22
e 20 23
e 20 24
e 20 25
e 20 26
e 20 27
e 20 28
e 20 29
e 20 30
e 20 31
e 20 32
e 20 33
e 20 34
e 20 35
e 20 37
e 20 38
e 20 39
e 20 40
e 20 41
e 20 42
e 20 43
e 20 46
e 20 48
e 20 50
e 20 51
e 20 52
e 20 54
e 20 55
e 20 57
e 20 58
e 20 59
e 20 62
e 20 64
e 20 65
e 20 66
e 20 74
e 20 79
e 20 80
e 20 83
e 20 87
e 20 90
e 20 93
e 20 96
e 20 97
e 20 100
e 20 101
e 20 106
e 20 107
e 20 108
e 20 111
e 20 112
e 20 113
e 20 117
e 20 118
e 20 119
e 20 121
e 20 124
e 20 131
e 20 143
e 20 144
e 20 148
e 20 160
e 20 161
e 20 164
e 20 165
e 20 169
e 20 170
e 20 171
e 20 173
e 20 186
e 21 22
e 21 23
e 21 25
e 21 26
e 21 28
e 21 29
e 21 30
e 21 31
e 21 32
e 21 35
e 21 36
e 21 38
e 21 39
e 21 42
e 21 43
e 21 45
e 21 47
e 21 48
e 21 49
e 21 50
e 21 52
e 21 56
e 21 58
e 21 60
e 21 61
e 21 63
e 21 65
e 21 67
e 21 76
e 21 77
e 21 78
e 21 79
e 21 81
e 21 84
e 21 90
e 21 91
e 21 93
e 21 96
e 21 102
e 21 103
e 21 107
e 21 108
e 21 110
e 21 111
e 21 114
e 21 115
e 21 121
e 21 125
e 21 135
e 21 136
e 21 140
e 21 143
e 21 144
e 21 146
e 21 148
e 21 150
e 21 154
e 21 155
e 21 162
e 21 164
e 21 165
e 21 170
e 21 171
e 21 176
e 21 177
e 21 184
e 21 185
e 21 190
e 21 193
e 22 23
e 22 24
e 22 25
e 22 26
e 22 28
e 22 30
e 22 31
e 22 32
e 22 33
e 22 36
e 22 37
e 22 38
e 22 39
e 22 40
e 22 41
e 22 43
e 22 45
e 22 47
e 22 48
e 22 54
e 22 56
e 22 60
e 22 63
e 22 64
e 22 65
e 22 67
e 22 70
e 22 73
e 22 74
e 22 82
e 22 84
e 22 88
e 22 92
e 22 97
e 22 98
e 22 100
e 22 102
e 22 114
e 22 117
e 22 127
e 22 130
e 22 137
e 22 142
e 22 144
e 22 149
e 22 151
e 22 154
e 22 155
e 22 156
e 22 166
e 22 176
e 22 178
e 22 179
e 22 185
e 22 187
e 22 188
e 22 191
e 22 193
e 22 197
e 23 24
e 23 25
e 23 26
e 23 27
e 23 28
e 23 29
e 23 30
e 23 31
e 23 33
e 23 34
e 23 36
e 23 37
e 23 38
e 23 39
e 23 40
e 23 41
e 23 42
e 23 43
e 23 45
e 23 46
e 23 47
e 23 48
e 23 49
e 23 50
e 23 52
e 23 54
e 23 55
e 23 57
e 23 58
e 23 60
e 23 61
e 23 63
e 23 65
e 23 67
e 23 69
e 23 70
e 23 72
e 23 74
e 23 80
e 23 81
e 23 86
e 23 92
e 23 93
e 23 96
e 23 105
e 23 113
e 23 117
e 23 119
e 23 121
e 23 124
e 23 126
e 23 132
e 23 141
e 23 145
e 23 148
e 23 176
e 23 182
e 23 191
e 23 195
e 24 25
e 24 26
e 24 27
e 24 32
e 24 37
e 24 38
e 24 39
e 24 40
e 24 41
e 24 42
e 24 43
e 24 46
e 24 47
e 24 49
e 24 50
e 24 55
e 24 57
e 24 59
e 24 62
e 24 63
e 24 65
e 24 66
e 24 69
e 24 70
e 24 72
e 24 74
e 24 75
e 24 76
e 24 77
e 24 79
e 24 82
e 24 84
e 24 86
e 24 87
e 24 90
e 24 94
e 24 95
e 24 102
e 24 105
e 24 107
e 24 108
e 24 110
e 24 111
e 24 112
e 24 115
e 24 119
e 24 123
e 24 126
e 24 127
e 24 129
e 24 132
e 24 133
e 24 136
e 24 141
e 24 145
e 24 149
e 24 150
e 24 153
e 24 156
e 24 158
e 24 162
e 24 163
e 24 165
e 24 171
e 24 175
e 24 177
e 24 186
e 24 196
e 24 198
e 25 26
e 25 27
e 25 28
e 25 30
e 25 31
e 25 33
e 25 35
e 25 36
e 25 39
e 25 42
e 25 45
e 25 50
e 25 51
e 25 53
e 25 54
e 25 55
e 25 56
e 25 57
e 25 59
e 25 61
e 25 62
e 25 65
e 25 66
e 25 83
e 25 86
e 25 89
e 25 93
e 25 100
e 25 101
e 25 105
e 25 107
e 25 110
e 25 112
e 25 115
e 25 121
e 25 127
e 25 132
e 25 151
e 25 162
e 25 168
e 25 170
e 25 171
e 25 172
e 25 174
e 25 188
e 25 189
e 25 194
e 26 27
e 26 29
e 26 32
e 26 33
e 26 34
e 26 37
e 26 38
e 26 39
e 26 40
e 26 42
e 26 43
e 26 44
e 26 46
e 26 49
e 26 52
e 26 57
e 26 60
e 26 64
e 26 66
e 26 78
e 26 80
e 26 87
e 26 90
e 26 99
e 26 101
e 26 106
e 26 110
e 26 112
e 26 114
e 26 123
e 26 128
e 26 129
e 26 131
e 26 132
e 26 140
e 26 145
e 26 151
e 26 158
e 26 167
e 26 170
e 26 176
e 27 28
e 27 29
e 27 31
e 27 32
e 27 33
e 27 34
e 27 35
e 27 36
e 27 37
e 27 40
e 27 43
e 27 45
e 27 49
e 27 53
e 27 57
e 27 58
e 27 61
e 27 62
e 27 65
e 27 66
e 27 67
e 27 68
e 27 82
e 27 109
e 27 111
e 27 117
e 27 123
e 27 131
e 27 133
e 27 135
e 27 138
e 27 142
e 27 147
e 27 148
e 27 149
e 27 158
e 27 159
e 27 161
e 27 174
e 27 180
e 27 181
e 27 182
e 27 187
e 27 195
e 28 31
e 28 32
e 28 33
e 28 35
e 28 36
e 28 37
e 28 39
e 28 41
e 28 44
e 28 45
e 28 46
e 28 47
e 28 51
e 28 57
e 28 61
e 28 62
e 28 67
e 28 70
e 28 74
e 28 80
e 28 85
e 28 88
e 28 89
e 28 92
e 28 94
e 28 95
e 28 96
e 28 98
e 28 106
e 28 109
e 28 110
e 28 112
e 28 118
e 28 119
e 28 127
e 28 128
e 28 130
e 28 137
e 28 139
e 28 142
e 28 149
e 28 152
e 28 153
e 28 154
e 28 163
e 28 172
e 28 173
e 28 176
e 28 184
e 28 192
e 28 196
e 28 198
e 29 31
e 29 32
e 29 36
e 29 39
e 29 41
e 29 42
e 29 44
e 29 46
e 29 47
e 29 48
e 29 49
e 29 52
e 29 54
e 29 55
e 29 56
e 29 62
e 29 71
e 29 75
e 29 77
e 29 89
e 29 90
e 29 107
e 29 108
e 29 115
e 29 124
e 29 129
e 29 145
e 29 164
e 29 166
e 29 167
e 29 171
e 29 174
e 29 177
e 29 179
e 29 189
e 29 192
e 29 196
e 30 31
e 30 32
e 30 34
e 30 36
e 30 38
e 30 39
e 30 40
e 30 43
e 30 44
e 30 45
e 30 47
e 30 50
e 30 51
e 30 52
e 30 54
e 30 55
e 30 59
e 30 60
e 30 64
e 30 76
e 30 80
e 30 82
e 30 84
e 30 94
e 30 99
e 30 107
e 30 108
e 30 116
e 30 125
e 30 128
e 30 136
e 30 140
e 30 142
e 30 148
e 30 186
e 30 187
e 30 194
e 30 196
e 30 197
e 31 32
e 31 33
e 31 36
e 31 37
e 31 39
e 31 56
e 31 62
e 31 64
e 31 76
e 31 83
e 31 85
e 31 91
e 31 97
e 31 102
e 31 103
e 31 111
e 31 113
e 31 114
e 31 126
e 31 134
e 31 139
e 31 145
e 31 154
e 31 163
e 31 164
e 31 186
e 31 194
e 32 33
e 32 34
e 32 35
e 32 37
e 32 38
e 32 41
e 32 44
e 32 47
e 32 51
e 32 52
e 32 55
e 32 56
e 32 62
e 32 64
e 32 65
e 32 68
e 32 71
e 32 76
e 32 79
e 32 84
e 32 90
e 32 97
e 32 98
e 32 115
e 32 120
e 32 123
e 32 137
e 32 152
e 32 156
e 32 169
e 32 181
e 32 187
e 32 190
e 33 34
e 33 36
e 33 37
e 33 40
e 33 41
e 33 48
e 33 49
e 33 50
e 33 54
e 33 58
e 33 67
e 33 68
e 33 70
e 33 73
e 33 78
e 33 79
e 33 81
e 33 86
e 33 92
e 33 95
e 33 101
e 33 104
e 33 130
e 33 131
e 33 135
e 33 136
e 33 140
e 33 154
e 33 156
e 33 164
e 33 169
e 33 173
e 33 179
e 33 184
e 33 196
e 34 35
e 34 40
e 34 41
e 34 44
e 34 45
e 34 46
e 34 52
e 34 56
e 34 59
e 34 60
e 34 63
e 34 64
e 34 65
e 34 66
e 34 67
e 34 68
e 34 70
e 34 74
e 34 76
e 34 84
e 34 85
e 34 86
e 34 87
e 34 94
e 34 98
e 34 104
e 34 108
e 34 110
e 34 113
e 34 117
e 34 123
e 34 130
e 34 133
e 34 134
e 34 138
e 34 144
e 34 149
e 34 151
e 34 155
e 34 158
e 34 159
e 34 160
e 34 161
e 34 168
e 34 172
e 34 193
e 35 36
e 35 37
e 35 38
e 35 39
e 35 41
e 35 43
e 35 48
e 35 49
e 35 50
e 35 60
e 35 61
e 35 63
e 35 68
e 35 69
e 35 71
e 35 72
e 35 75
e 35 76
e 35 86
e 35 87
e 35 95
e 35 97
e 35 99
e 35 101
e 35 105
e 35 117
e 35 118
e 35 123
e 35 131
e 35 135
e 35 142
e 35 144
e 35 164
e 35 168
e 35 173
e 35 174
e 35 181
e 35 183
e 35 186
e 35 193
e 35 198
e 36 38
e 36 46
e 36 54
e 36 66
e 36 73
e 36 77
e 36 80
e 36 83
e 36 85
e 36 89
e 36 93
e 36 100
e 36 102
e 36 105
e 36 106
e 36 108
e 36 109
e 36 114
e 36 117
e 36 134
e 36 155
e 36 162
e 36 173
e 36 176
e 36 184
e 37 38
e 37 44
e 37 47
e 37 48
e 37 58
e 37 59
e 37 60
e 37 63
e 37 72
e 37 78
e 37 79
e 37 82
e 37 94
e 37 102
e 37 103
e 37 104
e 37 119
e 37 127
e 37 130
e 37 131
e 37 134
e 37 158
e 37 160
e 37 161
e 37 163
e 37 169
e 37 190
e 37 193
e 38 39
e 38 40
e 38 47
e 38 49
e 38 51
e 38 54
e 38 57
e 38 59
e 38 61
e 38 71
e 38 78
e 38 85
e 38 92
e 38 98
e 38 104
e 38 110
e 38 118
e 38 145
e 38 148
e 38 161
e 38 169
e 39 41
e 39 42
e 39 46
e 39 49
e 39 66
e 39 68
e 39 81
e 39 87
e 39 88
e 39 116
e 39 117
e 39 125
e 39 160
e 39 189
e 40 41
e 40 53
e 40 63
e 40 65
e 40 70
e 40 74
e 40 80
e 40 83
e 40 87
e 40 90
e 40 95
e 40 98
e 40 101
e 40 111
e 40 113
e 40 135
e 40 160
e 40 173
e 41 43
e 41 45
e 41 46
e 41 53
e 41 56
e 41 58
e 41 62
e 41 65
e 41 66
e 41 73
e 41 78
e 41 79
e 41 85
e 41 87
e 41 88
e 41 93
e 41 104
e 41 106
e 41 107
e 41 114
e 41 117
e 41 135
e 41 138
e 41 147
e 41 149
e 41 150
e 41 151
e 41 153
e 41 162
e 41 163
e 41 169
e 41 176
e 41 177
e 41 180
e 41 188
e 41 196
e 42 52
e 42 57
e 42 69
e 42 72
e 42 76
e 42 84
e 42 86
e 42 88
e 42 91
e 42 96
e 42 101
e 42 104
e 42 120
e 42 149
e 42 152
e 42 160
e 42 162
e 42 164
e 42 165
e 42 175
e 42 186
e 42 193
e 43 48
e 43 49
e 43 51
e 43 56
e 43 59
e 43 62
e 43 70
e 43 71
e 43 73
e 43 75
e 43 84
e 43 89
e 43 96
e 43 108
e 43 121
e 43 126
e 43 132
e 43 145
e 43 149
e 43 151
e 43 152
e 43 156
e 43 158
e 43 160
e 43 170
e 43 182
e 43 186
e 43 198
e 44 51
e 44 54
e 44 59
e 44 60
e 44 68
e 44 72
e 44 77
e 44 92
e 44 97
e 44 103
e 44 104
e 44 111
e 44 114
e 44 161
e 44 166
e 44 178
e 44 184
e 45 51
e 45 52
e 45 53
e 45 56
e 45 57
e 45 58
e 45 60
e 45 62
e 45 65
e 45 67
e 45 70
e 45 72
e 45 78
e 45 80
e 45 85
e 45 101
e 45 103
e 45 116
e 45 119
e 45 122
e 45 125
e 45 136
e 45 145
e 45 150
e 45 153
e 45 162
e 45 180
e 45 190
e 45 191
e 46 47
e 46 49
e 46 56
e 46 57
e 46 69
e 46 87
e 46 91
e 46 100
e 46 110
e 46 116
e 46 162
e 46 170
e 46 176
e 46 189
e 46 195
e 47 53
e 47 57
e 47 58
e 47 67
e 47 80
e 47 81
e 47 85
e 47 86
e 47 90
e 47 92
e 47 100
e 47 109
e 47 135
e 47 136
e 47 147
e 47 150
e 47 195
e 47 197
e 48 52
e 48 55
e 48 58
e 48 60
e 48 70
e 48 72
e 48 73
e 48 80
e 48 95
e 48 123
e 48 132
e 48 144
e 48 149
e 48 151
e 48 152
e 48 153
e 48 165
e 48 187
e 48 191
e 49 52
e 49 53
e 49 54
e 49 55
e 49 57
e 49 60
e 49 61
e 49 69
e 49 81
e 49 83
e 49 87
e 49 88
e 49 89
e 49 94
e 49 99
e 49 100
e 49 102
e 49 116
e 49 122
e 49 135
e 49 136
e 49 148
e 49 149
e 49 164
e 49 166
e 49 175
e 49 181
e 49 185
e 49 189
e 49 193
e 49 194
e 50 53
e 50 54
e 50 55
e 50 58
e 50 65
e 50 66
e 50 67
e 50 82
e 50 89
e 50 96
e 50 100
e 50 133
e 50 134
e 50 135
e 50 141
e 50 164
e 50 170
e 50 177
e 50 182
e 50 187
e 51 53
e 51 62
e 51 63
e 51 72
e 51 73
e 51 77
e 51 79
e 51 95
e 51 101
e 51 110
e 51 128
e 51 140
e 51 144
e 51 149
e 51 157
e 51 168
e 51 172
e 51 176
e 51 178
e 51 183
e 51 196
e 51 198
e 52 54
e 52 56
e 52 58
e 52 61
e 52 63
e 52 64
e 52 75
e 52 84
e 52 85
e 52 108
e 52 138
e 52 141
e 52 164
e 52 165
e 52 178
e 52 185
e 52 192
e 52 194
e 53 62
e 53 67
e 53 68
e 53 70
e 53 71
e 53 72
e 53 73
e 53 75
e 53 76
e 53 78
e 53 79
e 53 81
e 53 82
e 53 85
e 53 96
e 53 97
e 53 107
e 53 121
e 53 125
e 53 132
e 53 134
e 53 135
e 53 154
e 53 160
e 53 162
e 53 169
e 53 170
e 53 174
e 53 187
e 53 191
e 54 59
e 54 63
e 54 64
e 54 65
e 54 75
e 54 77
e 54 78
e 54 83
e 54 89
e 54 91
e 54 95
e 54 101
e 54 103
e 54 104
e 54 109
e 54 113
e 54 118
e 54 123
e 54 137
e 54 142
e 54 149
e 54 151
e 54 157
e 54 170
e 54 173
e 54 189
e 54 196
e 55 58
e 55 81
e 55 94
e 55 99
e 55 106
e 55 147
e 55 154
e 55 179
e 55 181
e 55 188
e 56 61
e 56 69
e 56 70
e 56 74
e 56 75
e 56 92
e 56 109
e 56 115
e 56 116
e 56 118
e 56 122
e 56 156
e 56 157
e 57 81
e 57 82
e 57 96
e 57 101
e 57 102
e 57 106
e 57 116
e 57 134
e 57 136
e 57 160
e 57 177
e 57 183
e 57 192
e 58 61
e 58 64
e 58 66
e 58 78
e 58 88
e 58 100
e 58 101
e 58 102
e 58 105
e 58 134
e 58 135
e 58 137
e 58 141
e 58 147
e 58 153
e 58 171
e 58 186
e 58 188
e 59 67
e 59 69
e 59 70
e 59 72
e 59 80
e 59 95
e 59 97
e 59 109
e 59 123
e 59 124
e 59 127
e 59 140
e 59 152
e 59 159
e 59 170
e 59 188
e 60 64
e 60 69
e 60 72
e 60 81
e 60 87
e 60 110
e 60 112
e 60 113
e 60 114
e 60 125
e 60 127
e 60 133
e 60 136
e 60 145
e 60 154
e 60 156
e 60 160
e 60 161
e 61 80
e 61 93
e 61 94
e 61 103
e 61 111
e 61 112
e 61 119
e 61 120
e 61 129
e 61 142
e 61 145
e 61 147
e 61 148
e 61 153
e 61 155
e 61 159
e 61 164
e 61 167
e 61 172
e 61 174
e 61 188
e 61 196
e 62 67
e 62 68
e 62 69
e 62 70
e 62 72
e 62 83
e 62 86
e 62 89
e 62 113
e 62 116
e 62 122
e 62 123
e 62 136
e 62 143
e 62 156
e 62 163
e 62 165
e 62 167
e 62 186
e 63 69
e 63 71
e 63 73
e 63 75
e 63 83
e 63 88
e 63 98
e 63 106
e 63 108
e 63 115
e 63 121
e 63 130
e 63 139
e 63 140
e 63 141
e 63 149
e 63 155
e 63 156
e 63 159
e 63 162
e 63 169
e 63 181
e 63 183
e 64 67
e 64 69
e 64 75
e 64 76
e 64 77
e 64 79
e 64 81
e 64 82
e 64 85
e 64 92
e 64 94
e 64 99
e 64 103
e 64 106
e 64 112
e 64 113
e 64 118
e 64 132
e 64 136
e 64 150
e 64 151
e 64 153
e 64 172
e 64 179
e 64 192
e 65 73
e 65 74
e 65 77
e 65 87
e 65 89
e 65 93
e 65 94
e 65 97
e 65 98
e 65 105
e 65 107
e 65 109
e 65 119
e 65 121
e 65 122
e 65 127
e 65 146
e 65 159
e 65 162
e 65 175
e 65 182
e 66 68
e 66 78
e 66 90
e 66 92
e 66 94
e 66 96
e 66 101
e 66 102
e 66 118
e 66 123
e 66 125
e 66 126
e 66 137
e 66 153
e 66 157
e 66 158
e 66 175
e 66 184
e 66 190
e 67 71
e 67 73
e 67 74
e 67 99
e 67 106
e 67 117
e 67 120
e 67 123
e 67 132
e 67 139
e 67 154
e 67 166
e 67 167
e 67 170
e 67 175
e 67 195
e 68 69
e 68 70
e 68 71
e 68 74
e 68 76
e 68 82
e 68 88
e 68 93
e 68 95
e 68 100
e 68 113
e 68 117
e 68 124
e 68 128
e 68 133
e 68 138
e 68 140
e 68 145
e 68 152
e 68 172
e 68 178
e 68 192
e 69 77
e 69 87
e 69 89
e 69 90
e 69 92
e 69 97
e 69 107
e 69 113
e 69 123
e 69 134
e 69 141
e 69 148
e 69 150
e 69 158
e 69 166
e 69 173
e 69 195
e 70 78
e 70 86
e 70 88
e 70 115
e 70 117
e 70 122
e 70 127
e 70 138
e 70 146
e 70 164
e 70 167
e 70 171
e 70 173
e 70 184
e 71 72
e 71 74
e 71 91
e 71 98
e 71 116
e 71 123
e 71 125
e 71 130
e 71 136
e 71 146
e 71 165
e 71 173
e 71 178
e 71 188
e 71 189
e 71 198
e 72 79
e 72 95
e 72 104
e 72 122
e 72 124
e 72 125
e 72 138
e 72 143
e 72 146
e 72 154
e 72 178
e 72 192
e 72 194
e 73 83
e 73 84
e 73 86
e 73 93
e 73 103
e 73 107
e 73 115
e 73 120
e 73 124
e 73 146
e 73 151
e 73 152
e 73 177
e 73 184
e 73 195
e 73 196
e 74 77
e 74 78
e 74 79
e 74 90
e 74 92
e 74 94
e 74 95
e 74 99
e 74 105
e 74 109
e 74 116
e 74 134
e 74 146
e 74 149
e 74 170
e 74 172
e 74 179
e 74 185
e 74 186
e 74 192
e 75 99
e 75 100
e 75 110
e 75 112
e 75 128
e 75 129
e 75 134
e 75 159
e 75 166
e 75 172
e 75 194
e 75 198
e 76 77
e 76 90
e 76 105
e 76 111
e 76 130
e 76 141
e 76 153
e 76 176
e 77 80
e 77 90
e 77 91
e 77 98
e 77 104
e 77 107
e 77 141
e 77 147
e 77 150
e 77 157
e 77 191
e 78 89
e 78 104
e 78 125
e 78 127
e 78 134
e 78 139
e 78 141
e 78 143
e 78 196
e 78 197
e 79 80
e 79 99
e 79 108
e 79 115
e 79 119
e 79 120
e 79 133
e 79 137
e 79 138
e 79 143
e 79 146
e 79 150
e 79 172
e 79 177
e 79 178
e 79 197
e 80 83
e 80 84
e 80 97
e 80 117
e 80 121
e 80 124
e 80 140
e 80 152
e 80 156
e 81 87
e 81 106
e 81 110
e 81 115
e 81 126
e 81 129
e 81 132
e 81 142
e 81 166
e 81 168
e 81 179
e 81 180
e 81 183
e 82 96
e 82 100
e 82 102
e 82 107
e 82 108
e 82 115
e 82 118
e 82 128
e 82 130
e 82 133
e 82 140
e 82 146
e 82 172
e 82 193
e 82 194
e 83 86
e 83 87
e 83 88
e 83 91
e 83 98
e 83 129
e 83 133
e 83 148
e 83 160
e 83 175
e 84 85
e 84 99
e 84 109
e 84 118
e 84 126
e 84 137
e 84 141
e 84 157
e 84 177
e 84 179
e 84 183
e 84 186
e 85 91
e 85 100
e 85 129
e 85 134
e 85 137
e 85 144
e 85 149
e 85 151
e 85 154
e 85 158
e 86 96
e 86 97
e 86 105
e 86 121
e 86 144
e 86 151
e 86 152
e 86 163
e 86 168
e 86 169
e 86 176
e 86 183
e 86 185
e 86 194
e 87 96
e 87 102
e 87 120
e 87 124
e 87 125
e 87 133
e 87 134
e 87 137
e 87 138
e 87 139
e 87 140
e 87 143
e 87 148
e 87 157
e 87 167
e 87 181
e 87 182
e 87 185
e 87 186
e 87 197
e 88 104
e 88 111
e 88 131
e 88 188
e 89 93
e 89 96
e 89 99
e 89 107
e 89 108
e 89 109
e 89 113
e 89 117
e 89 122
e 89 135
e 89 140
e 89 141
e 89 145
e 89 157
e 89 166
e 89 185
e 90 100
e 90 106
e 90 110
e 90 130
e 90 143
e 90 149
e 90 168
e 90 180
e 90 185
e 91 97
e 91 102
e 91 105
e 91 129
e 91 130
e 91 152
e 91 165
e 91 174
e 91 182
e 91 193
e 92 97
e 92 121
e 92 129
e 92 133
e 92 150
e 92 161
e 92 163
e 92 164
e 92 189
e 93 100
e 93 105
e 93 140
e 93 154
e 93 177
e 93 183
e 93 185
e 93 193
e 94 98
e 94 104
e 94 120
e 94 122
e 94 126
e 94 147
e 94 162
e 94 182
e 95 98
e 95 107
e 95 121
e 95 129
e 95 160
e 95 180
e 95 191
e 96 110
e 96 129
e 96 167
e 96 183
e 96 197
e 97 120
e 97 138
e 97 139
e 97 155
e 97 166
e 97 172
e 97 190
e 97 195
e 98 99
e 98 111
e 98 114
e 98 130
e 98 137
e 98 144
e 98 155
e 98 175
e 98 191
e 99 114
e 99 120
e 99 128
e 99 132
e 99 135
e 99 184
e 99 194
e 100 101
e 100 106
e 100 112
e 100 122
e 100 174
e 100 179
e 100 197
e 101 108
e 101 115
e 101 120
e 101 124
e 101 138
e 101 155
e 101 174
e 101 198
e 102 110
e 102 114
e 102 120
e 102 140
e 102 150
e 102 156
e 102 162
e 102 163
e 102 166
e 102 171
e 102 187
e 103 104
e 103 109
e 103 122
e 103 125
e 103 129
e 103 139
e 103 156
e 103 158
e 103 171
e 103 176
e 103 197
e 104 114
e 104 122
e 104 130
e 104 131
e 104 133
e 104 147
e 105 106
e 105 110
e 105 115
e 105 126
e 105 132
e 105 133
e 105 137
e 105 157
e 105 177
e 105 181
e 105 185
e 105 188
e 105 195
e 105 196
e 106 107
e 106 109
e 106 111
e 106 117
e 106 129
e 106 131
e 106 143
e 106 180
e 106 189
e 107 113
e 107 154
e 107 155
e 107 156
e 107 158
e 107 161
e 107 178
e 107 180
e 107 188
e 107 189
e 107 197
e 108 114
e 108 119
e 108 137
e 108 141
e 108 144
e 108 156
e 108 167
e 108 176
e 109 126
e 109 128
e 109 150
e 109 153
e 109 160
e 109 161
e 109 169
e 109 174
e 109 187
e 109 190
e 110 150
e 110 152
e 110 165
e 110 181
e 110 189
e 111 119
e 111 121
e 111 123
e 111 124
e 111 141
e 111 145
e 111 148
e 111 172
e 111 173
e 111 184
e 111 187
e 111 190
e 111 198
e 112 116
e 112 134
e 112 147
e 112 156
e 112 162
e 112 169
e 112 179
e 112 191
e 113 147
e 113 154
e 113 180
e 113 189
e 114 124
e 114 130
e 114 135
e 114 156
e 115 127
e 115 139
e 115 159
e 115 167
e 115 198
e 116 132
e 116 142
e 116 157
e 117 119
e 117 130
e 117 166
e 117 173
e 117 174
e 117 196
e 118 120
e 118 125
e 118 173
e 118 185
e 119 136
e 119 155
e 119 195
e 120 159
e 120 184
e 121 142
e 121 152
e 121 163
e 121 171
e 122 139
e 122 142
e 122 151
e 122 170
e 122 195
e 123 128
e 123 135
e 123 168
e 123 193
e 124 127
e 124 143
e 124 153
e 124 157
e 124 163
e 124 171
e 124 175
e 124 184
e 124 192
e 125 131
e 125 143
e 125 144
e 125 145
e 125 159
e 125 180
e 125 183
e 126 131
e 126 136
e 126 137
e 126 147
e 126 154
e 126 165
e 126 167
e 126 168
e 126 169
e 126 178
e 127 128
e 127 139
e 127 193
e 127 194
e 127 198
e 128 140
e 128 141
e 128 143
e 128 155
e 128 159
e 128 160
e 128 167
e 128 183
e 128 184
e 128 197
e 129 165
e 129 185
e 129 194
e 129 198
e 130 132
e 130 177
e 130 187
e 130 191
e 131 159
e 131 168
e 131 194
e 132 142
e 132 166
e 132 174
e 132 176
e 132 180
e 132 193
e 133 138
e 133 139
e 133 141
e 133 179
e 134 138
e 134 143
e 134 144
e 134 153
e 134 184
e 134 190
e 135 151
e 135 165
e 135 170
e 135 187
e 135 193
e 135 195
e 135 197
e 136 161
e 136 162
e 136 166
e 136 172
e 136 181
e 136 190
e 137 152
e 137 174
e 137 195
e 138 139
e 138 146
e 138 168
e 138 174
e 138 182
e 138 191
e 139 140
e 139 142
e 139 144
e 139 176
e 139 182
e 139 192
e 139 197
e 140 177
e 140 183
e 141 163
e 141 184
e 142 148
e 142 157
e 142 182
e 142 188
e 142 190
e 143 178
e 144 167
e 144 179
e 144 180
e 145 150
e 146 153
e 146 158
e 147 187
e 147 196
e 148 161
e 148 178
e 148 187
e 149 152
e 149 158
e 149 163
e 149 168
e 149 182
e 150 183
e 150 189
e 151 166
e 151 180
e 152 158
e 152 169
e 153 171
e 153 187
e 154 155
e 154 174
e 154 178
e 154 182
e 155 158
e 157 181
e 158 165
e 158 181
e 159 196
e 159 198
e 160 182
e 160 192
e 163 164
e 163 173
e 163 175
e 163 198
e 164 180
e 164 190
e 164 191
e 164 192
e 166 181
e 166 198
e 167 175
e 167 190
e 168 177
e 173 175
e 173 193
e 174 177
e 174 186
e 175 180
e 176 185
e 176 198
e 180 182
e 181 192
e 182 194
e 182 195
e 183 186
e 187 197
e 189 191
e 191 196
e 196 197
